p tw 42 1051 23 
1 27 
1 31 
1 35 
1 39 
2 25 
2 29 
2 33 
2 37 
2 39 
3 24 
3 28 
3 32 
3 36 
3 39 
4 26 
4 30 
4 34 
4 38 
4 39 
5 23 
5 28 
5 33 
5 38 
5 41 
6 25 
6 30 
6 31 
6 36 
6 41 
7 24 
7 27 
7 34 
7 37 
7 41 
8 26 
8 29 
8 32 
8 35 
8 41 
9 23 
9 30 
9 32 
9 37 
9 40 
10 25 
10 28 
10 34 
10 35 
10 40 
11 24 
11 29 
11 31 
11 38 
11 40 
12 26 
12 27 
12 33 
12 36 
12 40 
13 23 
13 29 
13 34 
13 36 
13 42 
14 25 
14 27 
14 32 
14 38 
14 42 
15 24 
15 30 
15 33 
15 35 
15 42 
16 26 
16 28 
16 31 
16 37 
16 42 
17 22 
17 23 
17 24 
17 25 
17 26 
18 22 
18 27 
18 28 
18 29 
18 30 
19 22 
19 31 
19 32 
19 33 
19 34 
20 22 
20 35 
20 36 
20 37 
20 38 
21 22 
21 39 
21 40 
21 41 
21 42 
